n_res = 4;
rc = [ 35, 33, 38, 38 ];
n_tasks = 30;
d = [ 5, 5, 10, 4, 4, 8, 1, 9, 1, 6, 2, 6, 10, 8, 1, 1, 1, 10, 4, 9, 2, 1, 9, 2, 3, 6, 8, 1, 4, 1 ];
rr = [| 8, 10, 8, 5, 6, 6, 7, 9, 1, 8, 6, 5, 7, 8, 4, 3, 8, 7, 10, 4, 5, 6, 1, 2, 6, 4, 8, 2, 9, 10
      | 2, 6, 10, 3, 6, 5, 9, 10, 8, 5, 4, 10, 9, 3, 9, 9, 1, 3, 9, 9, 3, 8, 8, 1, 4, 4, 6, 5, 8, 2
      | 4, 4, 10, 5, 10, 8, 2, 9, 7, 8, 4, 1, 3, 7, 10, 10, 1, 5, 10, 6, 9, 3, 8, 3, 8, 8, 8, 3, 4, 1
      | 9, 7, 9, 3, 9, 10, 1, 6, 1, 3, 8, 5, 4, 3, 10, 9, 2, 5, 10, 10, 1, 3, 1, 3, 3, 9, 9, 8, 3, 10 |];
suc = [ { 2 }, 
        { 3 }, 
        { 4 }, 
        { 5 }, 
        { 6 }, 
        { 7 }, 
        { 8 }, 
        { 9 }, 
        { 10 }, 
        { 11 }, 
        { 12 }, 
        { 13 }, 
        { 14 }, 
        { 15 }, 
        { 16 }, 
        { 17 }, 
        { 18 }, 
        { 19 }, 
        { 20 }, 
        { 21 }, 
        { 22 }, 
        { 23 }, 
        { 24 }, 
        { 25 }, 
        { 26 }, 
        { 27 }, 
        { 28 }, 
        { 29 }, 
        { 30 }, 
        {  }]; 
